24° run output:
{
    "Function": "kroA400.tsp",
    "Problem dimension": [
        197,
        320,
        130,
        143,
        162,
        109,
        191,
        173,
        340,
        222,
        69,
        96,
        273,
        291,
        138,
        129,
        42,
        163,
        267,
        128,
        89,
        326,
        26,
        302,
        279,
        389,
        346,
        344,
        188,
        99,
        155,
        384,
        174,
        29,
        239,
        166,
        226,
        289,
        105,
        144,
        395,
        57,
        104,
        219,
        329,
        396,
        315,
        229,
        337,
        295,
        187,
        213,
        92,
        3,
        314,
        278,
        262,
        119,
        218,
        49,
        370,
        51,
        198,
        64,
        76,
        75,
        139,
        167,
        246,
        156,
        300,
        7,
        335,
        196,
        382,
        87,
        323,
        133,
        274,
        135,
        201,
        184,
        271,
        376,
        94,
        379,
        77,
        303,
        152,
        259,
        298,
        131,
        66,
        117,
        193,
        258,
        171,
        263,
        307,
        374,
        121,
        32,
        351,
        220,
        115,
        10,
        221,
        111,
        235,
        90,
        356,
        63,
        38,
        142,
        150,
        224,
        227,
        208,
        62,
        237,
        136,
        367,
        202,
        116,
        100,
        207,
        68,
        282,
        394,
        110,
        161,
        270,
        206,
        18,
        380,
        362,
        318,
        190,
        365,
        261,
        321,
        120,
        78,
        46,
        358,
        15,
        327,
        245,
        8,
        73,
        381,
        353,
        304,
        86,
        287,
        23,
        52,
        391,
        266,
        44,
        80,
        169,
        2,
        305,
        203,
        293,
        228,
        82,
        195,
        141,
        310,
        50,
        205,
        359,
        231,
        74,
        236,
        260,
        211,
        123,
        247,
        170,
        276,
        377,
        333,
        59,
        4,
        240,
        375,
        0,
        81,
        12,
        316,
        368,
        324,
        185,
        355,
        17,
        373,
        325,
        264,
        65,
        212,
        159,
        55,
        41,
        151,
        392,
        217,
        21,
        233,
        275,
        148,
        164,
        238,
        255,
        397,
        140,
        398,
        176,
        5,
        153,
        118,
        13,
        132,
        369,
        114,
        331,
        146,
        347,
        248,
        34,
        272,
        269,
        126,
        334,
        179,
        341,
        277,
        30,
        306,
        158,
        28,
        25,
        91,
        1,
        313,
        339,
        388,
        383,
        252,
        296,
        180,
        352,
        9,
        280,
        283,
        234,
        58,
        250,
        172,
        106,
        182,
        385,
        101,
        288,
        338,
        189,
        83,
        20,
        322,
        67,
        363,
        157,
        60,
        178,
        98,
        177,
        330,
        72,
        215,
        242,
        399,
        108,
        281,
        16,
        284,
        165,
        149,
        71,
        360,
        309,
        97,
        192,
        230,
        199,
        24,
        216,
        125,
        137,
        11,
        27,
        349,
        254,
        241,
        47,
        122,
        204,
        31,
        393,
        61,
        183,
        319,
        154,
        102,
        145,
        268,
        292,
        286,
        256,
        45,
        134,
        390,
        181,
        113,
        354,
        168,
        70,
        308,
        19,
        127,
        88,
        200,
        35,
        386,
        364,
        371,
        366,
        6,
        103,
        243,
        257,
        124,
        345,
        253,
        328,
        265,
        387,
        95,
        33,
        107,
        85,
        209,
        372,
        223,
        249,
        342,
        210,
        54,
        297,
        160,
        232,
        312,
        36,
        251,
        285,
        175,
        294,
        301,
        214,
        350,
        93,
        311,
        378,
        332,
        357,
        317,
        299,
        147,
        343,
        14,
        40,
        225,
        348,
        43,
        39,
        84,
        53,
        56,
        194,
        112,
        244,
        290,
        336,
        48,
        186,
        79,
        37,
        361,
        22
    ],
    "Global Optimum": 0,
    "Algorithm": "Genetic algorithm",
    "Parameters": {
        "population": 30,
        "offspring": 30,
        "mutation probability": 0.0025,
        "crossover probability": 0.9
    },
    "Fitness": 516285,
    "Solution": [
        197,
        320,
        130,
        143,
        162,
        109,
        191,
        173,
        340,
        222,
        69,
        96,
        273,
        291,
        138,
        129,
        42,
        163,
        267,
        128,
        89,
        326,
        26,
        302,
        279,
        389,
        346,
        344,
        188,
        99,
        155,
        384,
        174,
        29,
        239,
        166,
        226,
        289,
        105,
        144,
        395,
        57,
        104,
        219,
        329,
        396,
        315,
        229,
        337,
        295,
        187,
        213,
        92,
        3,
        314,
        278,
        262,
        119,
        218,
        49,
        370,
        51,
        198,
        64,
        76,
        75,
        139,
        167,
        246,
        156,
        300,
        7,
        335,
        196,
        382,
        87,
        323,
        133,
        274,
        135,
        201,
        184,
        271,
        376,
        94,
        379,
        77,
        303,
        152,
        259,
        298,
        131,
        66,
        117,
        193,
        258,
        171,
        263,
        307,
        374,
        121,
        32,
        351,
        220,
        115,
        10,
        221,
        111,
        235,
        90,
        356,
        63,
        38,
        142,
        150,
        224,
        227,
        208,
        62,
        237,
        136,
        367,
        202,
        116,
        100,
        207,
        68,
        282,
        394,
        110,
        161,
        270,
        206,
        18,
        380,
        362,
        318,
        190,
        365,
        261,
        321,
        120,
        78,
        46,
        358,
        15,
        327,
        245,
        8,
        73,
        381,
        353,
        304,
        86,
        287,
        23,
        52,
        391,
        266,
        44,
        80,
        169,
        2,
        305,
        203,
        293,
        228,
        82,
        195,
        141,
        310,
        50,
        205,
        359,
        231,
        74,
        236,
        260,
        211,
        123,
        247,
        170,
        276,
        377,
        333,
        59,
        4,
        240,
        375,
        0,
        81,
        12,
        316,
        368,
        324,
        185,
        355,
        17,
        373,
        325,
        264,
        65,
        212,
        159,
        55,
        41,
        151,
        392,
        217,
        21,
        233,
        275,
        148,
        164,
        238,
        255,
        397,
        140,
        398,
        176,
        5,
        153,
        118,
        13,
        132,
        369,
        114,
        331,
        146,
        347,
        248,
        34,
        272,
        269,
        126,
        334,
        179,
        341,
        277,
        30,
        306,
        158,
        28,
        25,
        91,
        1,
        313,
        339,
        388,
        383,
        252,
        296,
        180,
        352,
        9,
        280,
        283,
        234,
        58,
        250,
        172,
        106,
        182,
        385,
        101,
        288,
        338,
        189,
        83,
        20,
        322,
        67,
        363,
        157,
        60,
        178,
        98,
        177,
        330,
        72,
        215,
        242,
        399,
        108,
        281,
        16,
        284,
        165,
        149,
        71,
        360,
        309,
        97,
        192,
        230,
        199,
        24,
        216,
        125,
        137,
        11,
        27,
        349,
        254,
        241,
        47,
        122,
        204,
        31,
        393,
        61,
        183,
        319,
        154,
        102,
        145,
        268,
        292,
        286,
        256,
        45,
        134,
        390,
        181,
        113,
        354,
        168,
        70,
        308,
        19,
        127,
        88,
        200,
        35,
        386,
        364,
        371,
        366,
        6,
        103,
        243,
        257,
        124,
        345,
        253,
        328,
        265,
        387,
        95,
        33,
        107,
        85,
        209,
        372,
        223,
        249,
        342,
        210,
        54,
        297,
        160,
        232,
        312,
        36,
        251,
        285,
        175,
        294,
        301,
        214,
        350,
        93,
        311,
        378,
        332,
        357,
        317,
        299,
        147,
        343,
        14,
        40,
        225,
        348,
        43,
        39,
        84,
        53,
        56,
        194,
        112,
        244,
        290,
        336,
        48,
        186,
        79,
        37,
        361,
        22
    ],
    "Nb of functions evaluations": 50010,
    "Computational time in seconds": 240.0990846157074,
    "Stopping criterion in evaluations": 50000
}